123
wet_rib_y_o00_al_wNa1 t=6ps nw=10 na=1
O 3.243811 15.436907 9.117644
O 3.651358 8.964097 9.125844
O 4.681453 10.711854 6.885795
O 4.193226 7.721148 6.948821
O 2.104753 15.432807 6.873138
O 1.580069 12.555977 6.909022
O 0.573860 10.813975 9.132390
O 1.048915 13.659992 9.121400
O 5.149614 9.406411 11.559935
O 2.771000 7.699220 11.396760
O 2.579526 10.723927 11.117586
O 2.778056 7.184652 4.340105
O 4.874218 9.059915 4.526908
O 0.188551 6.134534 5.068874
O 0.193532 11.972449 4.425102
O 2.292505 13.851489 4.516418
O 2.680846 10.821432 4.968249
O 2.564343 14.101545 11.477919
O 0.293473 12.410395 11.476392
O 5.150535 15.339539 11.284272
Si 3.463293 15.531495 10.844376
Si 3.535724 9.264588 10.839227
Si 4.416318 10.681113 5.161828
Si 4.263188 7.570694 5.202286
Si 1.828563 15.468334 5.146158
Si 1.737159 12.381889 5.184880
Si 0.840947 10.900311 10.857665
Si 0.951537 13.933292 10.852871
H 0.908903 7.707402 10.045874
H 2.075248 9.734202 6.378921
H 4.584125 14.350483 6.288003
H 3.259623 12.024705 9.789886
O 1.040849 7.888506 9.052047
O 1.708026 9.036891 7.043634
O 4.207753 13.665116 6.954744
O 3.548230 12.508654 8.942067
Al 2.635628 7.693220 8.039665
Al 0.100308 9.283685 8.036440
Al 2.637143 13.956195 8.002445
Al 0.008982 12.392035 7.996656
O 3.254372 24.748901 9.052741
O 3.714166 18.281634 9.124035
O 4.773886 20.133250 6.880177
O 4.210534 17.288764 6.868650
O 1.915910 24.577387 6.687675
O 1.698296 21.909140 6.938728
O 0.670130 20.129349 9.132085
O 1.076149 22.990377 9.131223
O 5.159333 18.729368 11.478261
O 2.878421 17.030453 11.468255
O 2.576164 19.953607 11.281916
O 2.775292 16.761386 4.425627
O 4.965512 18.607088 4.512363
O 0.113859 15.605132 4.883789
O 0.296066 21.468836 4.427389
O 2.474032 23.391914 4.605393
O 2.764026 20.245719 4.966713
O 2.573475 23.509908 11.555959
O 0.384027 21.720460 11.476171
O 5.153116 24.660174 11.287262
Si 3.503257 24.893950 10.717824
Si 3.546618 18.555025 10.849320
Si 4.495168 20.200153 5.156933
Si 4.343050 17.146590 5.139597
Si 1.866660 21.868115 5.179685
Si 0.887939 20.195713 10.862004
Si 0.990425 23.273383 10.865623
H 0.820165 16.847777 9.871212
H 2.088255 19.059451 6.291108
H 4.858846 23.854356 6.625009
H 3.358734 21.384261 9.820756
O 1.056742 17.203324 8.948636
O 1.713822 18.367383 6.959224
O 4.301690 23.065063 6.965150
O 3.630740 21.826077 8.946126
Mg 2.667160 17.069600 7.975759
Al 0.130976 18.639145 7.986486
Al 2.674487 23.299205 8.006144
Al 0.097208 21.715130 7.998502
O 3.336032 6.292380 9.393936
O 1.627476 6.122154 7.207221
O 3.061886 26.517063 11.296203
H 3.109773 6.663801 10.403963
H 1.172808 6.069823 6.198941
H 2.126533 25.561233 6.891297
H 3.151097 5.285990 9.273944
H 0.807256 6.036192 7.833541
H 2.233162 24.167849 5.566727
H 3.358165 26.686098 12.270118
H 2.504148 7.592183 12.387288
H 2.202993 8.017721 4.114143
H 0.532024 5.816267 4.148835
Na 1.533921 25.393794 4.004235
O 0.321887 29.897153 4.561414
H 0.557673 30.064030 5.518784
H 0.289965 30.767192 4.069466
O 1.587273 29.583888 7.179339
H 2.216131 29.133407 7.813062
H 0.847759 30.016706 7.694883
O 4.831224 24.062536 3.810639
H 5.358978 23.218393 3.716308
H 3.916641 23.847337 4.153022
O 2.377308 27.231081 5.009751
H 2.676153 27.290643 5.962192
H 1.912102 28.078166 4.752787
O 4.983133 27.236492 3.903737
H 4.069342 26.896194 4.125512
H 4.976773 28.236458 3.908975
O 2.424873 3.520848 8.189073
H 3.384540 3.309640 8.003521
H 2.217970 4.443862 7.864672
O 2.895830 28.607895 9.654468
H 2.850922 27.729726 10.130705
H 3.063746 29.338049 10.316797
O 4.862133 2.815887 7.488425
H 5.669779 2.986106 8.052990
H 5.137215 2.727916 6.531037
O 4.708212 31.461401 7.510465
H 4.316711 32.037658 6.793071
H 4.910816 32.021040 8.314054
O 3.284429 26.981400 7.507445
H 3.310541 27.710796 8.191038
H 3.443921 26.100704 7.953466
