153
wet_rib_x_o00_si_w1 t=6ps nw=19 na=0
O 9.895730 8.508797 9.142014
O 10.642393 2.235570 9.131375
O 11.592558 4.015522 6.933432
O 11.100397 1.287849 6.940449
O 8.833179 8.506940 6.952862
O 8.454043 5.691824 6.964790
O 7.503188 4.012191 8.501390
O 7.784935 6.917650 9.108634
O 11.889694 2.893318 11.561966
O 9.968709 0.941361 11.649251
O 9.200415 3.723371 11.009407
O 9.791001 0.561137 4.524508
O 11.770481 2.534040 4.519040
O 6.929091 0.197976 4.790438
O 6.926470 4.751634 4.786409
O 8.642708 7.015773 4.521470
O 9.703655 4.392155 4.713255
O 9.127884 7.189820 11.478085
O 7.028679 5.131956 11.103013
O 11.888244 8.119525 11.109318
Si 10.214181 8.386820 10.867050
Si 10.373832 2.443600 10.868231
Si 11.337130 4.068508 5.182674
Si 11.301977 1.038379 5.211524
Si 8.509941 8.585005 5.219757
Si 8.445052 5.467480 5.238454
Si 7.561910 3.517570 10.249206
Si 7.567430 6.719481 10.895760
H 7.393120 1.003716 9.975305
H 8.656394 2.646052 6.131499
H 11.536839 7.465025 6.292138
H 10.177081 5.143984 9.760188
O 8.068176 1.678685 9.578819
O 8.362970 2.253014 7.032731
O 11.117915 6.816668 6.958782
O 10.536199 5.784110 9.040757
Al 9.442941 1.101846 8.095425
Al 9.482720 7.003056 7.974721
O 15.581240 8.415395 9.028246
O 15.971254 2.337771 9.008765
O 17.002607 4.011760 7.492649
O 16.633840 1.112173 6.874343
O 14.517608 8.480618 6.835114
O 13.769711 5.794052 6.869465
O 12.814966 4.011196 9.110196
O 13.311476 6.739164 9.051841
O 17.472053 3.270432 11.280233
O 15.772864 0.948802 11.388725
O 14.716753 3.632554 11.204386
O 15.376910 0.747271 4.432332
O 17.384444 2.901797 4.888070
O 12.542685 -0.091263 4.879580
O 12.474553 5.152507 4.503264
O 14.449385 7.051197 4.343915
O 15.203464 4.298127 5.061240
O 14.636227 7.387793 11.468005
O 12.642309 5.485420 11.480222
O 17.486152 7.742856 11.200910
Si 15.913120 8.328539 10.756700
Si 15.978028 2.528524 10.741764
Si 16.866242 4.504828 5.749928
Si 16.895110 1.296500 5.082046
Si 14.224412 8.591467 5.102440
Si 14.020799 5.570668 5.142474
Si 13.055029 3.938633 10.847327
Si 13.112356 6.969135 10.780956
H 12.884165 0.550179 9.695064
H 14.257437 2.911531 6.262232
H 17.056936 7.015257 6.068023
H 15.691453 5.250319 9.813745
O 13.299529 1.209634 9.035740
O 13.879535 2.247284 6.952945
O 16.348795 6.351212 6.417199
O 16.043252 5.700192 8.959618
Al 14.935401 1.008270 8.012041
Al 12.237897 2.483538 8.016375
Al 14.980846 6.900046 7.892534
Al 12.180957 5.548364 7.994660
O 6.176900 2.706478 11.019938
O 6.447907 8.036103 11.127775
O 18.237254 5.328987 4.972008
O 18.144896 0.092858 4.870622
H 5.650117 3.373571 11.606215
H 6.058583 8.267391 12.049651
H 18.771538 4.669902 4.384285
H 18.415099 -0.240074 3.936850
H 7.906567 4.892713 7.827619
H 7.795746 3.102958 7.758872
H 6.929010 6.841687 8.549401
H 6.611318 1.078045 5.222686
H 6.683417 4.741915 3.788182
H 16.555402 3.138429 8.147245
H 16.663121 4.908929 8.245430
H 17.481809 1.237531 7.438785
H 17.613059 3.340862 12.296965
H 17.781299 6.840105 10.800001
O 20.672775 3.935299 6.506221
H 21.562232 3.488998 6.604618
H 20.669964 4.790719 7.024147
O 4.391595 8.196516 5.879779
H 5.172534 8.549110 5.364209
H 3.578786 8.738235 5.665581
O 18.960075 6.029181 9.620762
H 19.840425 5.670711 9.931378
H 19.102553 6.622249 8.828316
O 23.093541 2.980195 7.565713
H 22.916275 2.023513 7.796657
H 23.983315 3.252203 7.932202
O 20.043198 2.539944 9.884092
H 20.704055 3.257424 9.663889
H 19.216584 2.953803 10.265444
O 22.435360 0.344270 8.385527
H 22.612829 -0.429833 7.777852
H 21.495120 0.659796 8.257498
O 21.620251 4.941970 9.620050
H 22.270004 4.589069 8.946787
H 22.051449 5.673930 10.147594
O 22.621769 7.405594 11.240521
H 22.807020 7.381959 12.222929
H 21.843098 8.007255 11.062546
O 0.848499 7.960953 9.635803
H 0.540749 8.279489 8.739241
H 0.151851 8.171683 10.321568
O 22.981869 7.019766 7.002510
H 22.438510 6.900560 6.171516
H 23.218595 6.123432 7.377404
O 4.112256 1.504947 9.530518
H 3.754791 0.583895 9.685053
H 4.882703 1.671081 10.145994
O 3.046346 6.055959 9.423445
H 3.805661 6.694265 9.296926
H 2.241953 6.554661 9.746319
O 4.299156 3.962536 8.168753
H 3.916399 4.661477 8.772887
H 4.099750 3.055633 8.539918
O 1.080328 3.591499 8.706605
H 1.568644 4.437431 8.492255
H 1.721772 2.824408 8.695565
O 19.415910 7.087561 7.000489
H 19.406039 8.047544 6.720608
H 19.217196 6.507910 6.210224
O 5.520954 6.519549 7.712492
H 5.637521 5.582370 7.383694
H 5.061286 7.064148 7.010982
O 20.254605 8.915738 11.180704
H 19.384874 8.444568 11.327558
H 20.079254 9.851061 10.873420
O 19.256009 1.626798 7.374660
H 19.573606 2.460187 6.922339
H 19.497959 1.660941 8.344347
O 5.500392 2.695620 5.794781
H 5.031138 3.091399 6.584185
H 6.020766 3.408403 5.324514
