153
wet_rib_x_o00_si_w2 t=12ps nw=19 na=0
O 9.895730 8.508797 9.142014
O 10.642393 2.235570 9.131375
O 11.592558 4.015522 6.933432
O 11.100397 1.287849 6.940449
O 8.833179 8.506940 6.952862
O 8.454043 5.691824 6.964790
O 7.503188 4.012191 8.501390
O 7.784935 6.917650 9.108634
O 11.889694 2.893318 11.561966
O 9.968709 0.941361 11.649251
O 9.200415 3.723371 11.009407
O 9.791001 0.561137 4.524508
O 11.770481 2.534040 4.519040
O 6.929091 0.197976 4.790438
O 6.926470 4.751634 4.786409
O 8.642708 7.015773 4.521470
O 9.703655 4.392155 4.713255
O 9.127884 7.189820 11.478085
O 7.028679 5.131956 11.103013
O 11.888244 8.119525 11.109318
Si 10.214181 8.386820 10.867050
Si 10.373832 2.443600 10.868231
Si 11.337130 4.068508 5.182674
Si 11.301977 1.038379 5.211524
Si 8.509941 8.585005 5.219757
Si 8.445052 5.467480 5.238454
Si 7.561910 3.517570 10.249206
Si 7.567430 6.719481 10.895760
H 7.393120 1.003716 9.975305
H 8.656394 2.646052 6.131499
H 11.536839 7.465025 6.292138
H 10.177081 5.143984 9.760188
O 8.068176 1.678685 9.578819
O 8.362970 2.253014 7.032731
O 11.117915 6.816668 6.958782
O 10.536199 5.784110 9.040757
Al 9.442941 1.101846 8.095425
Al 9.482720 7.003056 7.974721
O 15.581240 8.415395 9.028246
O 15.971254 2.337771 9.008765
O 17.002607 4.011760 7.492649
O 16.633840 1.112173 6.874343
O 14.517608 8.480618 6.835114
O 13.769711 5.794052 6.869465
O 12.814966 4.011196 9.110196
O 13.311476 6.739164 9.051841
O 17.472053 3.270432 11.280233
O 15.772864 0.948802 11.388725
O 14.716753 3.632554 11.204386
O 15.376910 0.747271 4.432332
O 17.384444 2.901797 4.888070
O 12.542685 -0.091263 4.879580
O 12.474553 5.152507 4.503264
O 14.449385 7.051197 4.343915
O 15.203464 4.298127 5.061240
O 14.636227 7.387793 11.468005
O 12.642309 5.485420 11.480222
O 17.486152 7.742856 11.200910
Si 15.913120 8.328539 10.756700
Si 15.978028 2.528524 10.741764
Si 16.866242 4.504828 5.749928
Si 16.895110 1.296500 5.082046
Si 14.224412 8.591467 5.102440
Si 14.020799 5.570668 5.142474
Si 13.055029 3.938633 10.847327
Si 13.112356 6.969135 10.780956
H 12.884165 0.550179 9.695064
H 14.257437 2.911531 6.262232
H 17.056936 7.015257 6.068023
H 15.691453 5.250319 9.813745
O 13.299529 1.209634 9.035740
O 13.879535 2.247284 6.952945
O 16.348795 6.351212 6.417199
O 16.043252 5.700192 8.959618
Al 14.935401 1.008270 8.012041
Al 12.237897 2.483538 8.016375
Al 14.980846 6.900046 7.892534
Al 12.180957 5.548364 7.994660
O 6.176900 2.706478 11.019938
O 6.447907 8.036103 11.127775
O 18.237254 5.328987 4.972008
O 18.144896 0.092858 4.870622
H 5.650117 3.373571 11.606215
H 6.058583 8.267391 12.049651
H 18.771538 4.669902 4.384285
H 18.415099 -0.240074 3.936850
H 7.906567 4.892713 7.827619
H 7.795746 3.102958 7.758872
H 6.929010 6.841687 8.549401
H 6.611318 1.078045 5.222686
H 6.683417 4.741915 3.788182
H 16.555402 3.138429 8.147245
H 16.663121 4.908929 8.245430
H 17.481809 1.237531 7.438785
H 17.613059 3.340862 12.296965
H 17.781299 6.840105 10.800001
O 20.274716 3.807630 8.155411
H 20.862517 3.871137 8.961920
H 20.177138 4.712914 7.741964
O 4.946220 7.431775 4.910531
H 5.698237 8.065499 4.729246
H 4.249701 7.528981 4.199608
O 18.718826 5.614190 10.295663
H 18.563966 4.627975 10.237358
H 19.369077 5.891864 9.588507
O 20.829547 1.307184 5.250248
H 20.051437 0.684354 5.168843
H 21.235897 1.215859 6.159390
O 20.804584 2.091656 11.582721
H 21.479811 2.660464 11.113119
H 19.885025 2.361245 11.296833
O 21.250492 8.801270 7.756959
H 22.078466 8.334958 7.445493
H 21.181306 8.728643 8.751916
O 1.824805 7.514043 7.229370
H 2.266148 7.857717 6.400452
H 1.927695 8.184436 7.964207
O 21.834285 4.474690 10.147678
H 22.623128 4.928605 9.733327
H 21.383507 5.102770 10.781961
O 23.391919 3.598278 5.441938
H 23.790772 2.743044 5.772833
H 22.806819 3.409952 4.653146
O 24.502678 5.404474 7.465887
H 24.058728 4.997828 6.667421
H 25.043273 6.195631 7.179833
O 4.113469 0.833890 10.810161
H 4.547775 -0.055719 10.951492
H 4.798760 1.556944 10.897169
O 2.888786 5.136403 8.446688
H 2.896774 6.123486 8.606703
H 1.979479 4.855918 8.139297
O 4.456074 2.740294 8.149366
H 3.706496 3.386480 8.292808
H 4.160039 1.822408 8.413654
O 1.854495 0.375728 9.390593
H 1.167764 0.942366 9.845919
H 2.703084 0.390989 9.919425
O 19.790996 6.367142 7.413130
H 19.942593 7.336895 7.604432
H 19.790790 6.218543 6.424233
O 5.390235 6.540729 7.906498
H 4.734503 5.787603 7.959563
H 5.343577 6.960044 6.999857
O 20.532575 8.434123 10.412939
H 19.627481 8.076487 10.642944
H 20.838921 9.054924 11.134576
O 18.839602 1.433276 8.325248
H 18.793823 2.431426 8.365262
H 19.722573 1.154997 7.947198
O 5.656296 2.328847 5.719163
H 5.305763 2.382971 6.654148
H 5.900754 3.244925 5.401293
