154
wet_rib_x_o00_si_wNa2 t=12ps nw=19 na=1
O 9.895730 8.508797 9.142014
O 10.642393 2.235570 9.131375
O 11.592558 4.015522 6.933432
O 11.100397 1.287849 6.940449
O 8.833179 8.506940 6.952862
O 8.454043 5.691824 6.964790
O 7.503188 4.012191 8.501390
O 7.784935 6.917650 9.108634
O 11.889694 2.893318 11.561966
O 9.968709 0.941361 11.649251
O 9.200415 3.723371 11.009407
O 9.791001 0.561137 4.524508
O 11.770481 2.534040 4.519040
O 6.929091 0.197976 4.790438
O 6.926470 4.751634 4.786409
O 8.642708 7.015773 4.521470
O 9.703655 4.392155 4.713255
O 9.127884 7.189820 11.478085
O 7.028679 5.131956 11.103013
O 11.888244 8.119525 11.109318
Si 10.214181 8.386820 10.867050
Si 10.373832 2.443600 10.868231
Si 11.337130 4.068508 5.182674
Si 11.301977 1.038379 5.211524
Si 8.509941 8.585005 5.219757
Si 8.445052 5.467480 5.238454
Si 7.561910 3.517570 10.249206
Si 7.567430 6.719481 10.895760
H 7.393120 1.003716 9.975305
H 8.656394 2.646052 6.131499
H 11.536839 7.465025 6.292138
H 10.177081 5.143984 9.760188
O 8.068176 1.678685 9.578819
O 8.362970 2.253014 7.032731
O 11.117915 6.816668 6.958782
O 10.536199 5.784110 9.040757
Al 9.442941 1.101846 8.095425
Al 9.482720 7.003056 7.974721
O 15.581240 8.415395 9.028246
O 15.971254 2.337771 9.008765
O 17.002607 4.011760 7.492649
O 16.633840 1.112173 6.874343
O 14.517608 8.480618 6.835114
O 13.769711 5.794052 6.869465
O 12.814966 4.011196 9.110196
O 13.311476 6.739164 9.051841
O 17.472053 3.270432 11.280233
O 15.772864 0.948802 11.388725
O 14.716753 3.632554 11.204386
O 15.376910 0.747271 4.432332
O 17.384444 2.901797 4.888070
O 12.542685 -0.091263 4.879580
O 12.474553 5.152507 4.503264
O 14.449385 7.051197 4.343915
O 15.203464 4.298127 5.061240
O 14.636227 7.387793 11.468005
O 12.642309 5.485420 11.480222
O 17.486152 7.742856 11.200910
Si 15.913120 8.328539 10.756700
Si 15.978028 2.528524 10.741764
Si 16.866242 4.504828 5.749928
Si 16.895110 1.296500 5.082046
Si 14.224412 8.591467 5.102440
Si 14.020799 5.570668 5.142474
Si 13.055029 3.938633 10.847327
Si 13.112356 6.969135 10.780956
H 12.884165 0.550179 9.695064
H 14.257437 2.911531 6.262232
H 17.056936 7.015257 6.068023
H 15.691453 5.250319 9.813745
O 13.299529 1.209634 9.035740
O 13.879535 2.247284 6.952945
O 16.348795 6.351212 6.417199
O 16.043252 5.700192 8.959618
Al 14.935401 1.008270 8.012041
Mg 12.237897 2.483538 8.016375
Al 14.980846 6.900046 7.892534
Al 12.180957 5.548364 7.994660
O 6.176900 2.706478 11.019938
O 6.447907 8.036103 11.127775
O 18.237254 5.328987 4.972008
O 18.144896 0.092858 4.870622
H 5.650117 3.373571 11.606215
H 6.058583 8.267391 12.049651
H 18.771538 4.669902 4.384285
H 18.415099 -0.240074 3.936850
H 7.906567 4.892713 7.827619
H 7.795746 3.102958 7.758872
H 6.929010 6.841687 8.549401
H 6.611318 1.078045 5.222686
H 6.683417 4.741915 3.788182
H 16.555402 3.138429 8.147245
H 16.663121 4.908929 8.245430
H 17.481809 1.237531 7.438785
H 17.613059 3.340862 12.296965
H 17.781299 6.840105 10.800001
Na 3.424820 1.683907 7.942238
O 1.642474 1.798960 9.499746
H 1.775415 1.180394 10.274150
H 0.663720 1.924530 9.337656
O 20.305254 -0.071176 6.464788
H 19.840646 0.274593 7.280008
H 19.636471 -0.213242 5.735030
O 19.794496 6.109987 7.090112
H 19.444058 5.863614 6.186512
H 19.770864 7.103962 7.197136
O 4.326279 4.976708 5.805442
H 5.256980 4.663929 5.615798
H 4.142817 5.811345 5.286096
O 5.568210 2.148869 7.180629
H 6.431142 1.655780 7.291134
H 5.739856 3.133360 7.216916
O 21.855091 4.352785 8.288005
H 21.305898 4.014233 9.052054
H 21.316197 5.003080 7.752553
O 23.505021 6.407118 8.820798
H 22.914533 5.646298 8.551582
H 23.218683 6.751005 9.715087
O 2.376493 3.473379 6.780386
H 1.591494 3.600335 6.174037
H 3.195061 3.853789 6.349997
O 22.792868 0.019378 7.510554
H 21.896428 -0.012938 7.068570
H 23.232836 -0.875681 7.437774
O 23.259028 1.789295 9.488599
H 22.774144 2.597596 9.154629
H 23.196924 1.058718 8.808599
O 1.691259 6.314047 7.360304
H 2.134221 5.421051 7.439936
H 0.856868 6.322553 7.911410
O 18.652715 1.671415 8.458058
H 18.336004 2.617731 8.393415
H 18.963970 1.487046 9.390328
O 19.411644 0.527592 10.791918
H 20.302114 0.146010 11.039827
H 18.689296 0.021744 11.263438
O 4.718302 0.883034 9.791921
H 5.294261 1.568146 10.237894
H 5.209671 0.013291 9.746065
O 4.579808 7.834195 4.572823
H 5.361036 8.456049 4.627418
H 4.249743 7.795655 3.629652
O 3.288178 8.577385 6.884079
H 2.583935 7.892906 7.072566
H 3.880284 8.252109 6.146783
O 5.230147 6.809548 8.021077
H 4.978713 6.046705 7.425384
H 4.415275 7.348522 8.234355
O 24.072448 3.522345 5.884723
H 23.592435 3.826564 6.707544
H 23.514054 2.846395 5.403800
O 20.281061 3.340494 10.409775
H 20.380760 2.349896 10.503446
H 19.347770 3.605915 10.651683
