122
wet_rib_y_o00_al_w2 t=12ps nw=10 na=0
O 3.243811 15.436907 9.117644
O 3.651358 8.964097 9.125844
O 4.681453 10.711854 6.885795
O 4.193226 7.721148 6.948821
O 2.104753 15.432807 6.873138
O 1.580069 12.555977 6.909022
O 0.573860 10.813975 9.132390
O 1.048915 13.659992 9.121400
O 5.149614 9.406411 11.559935
O 2.771000 7.699220 11.396760
O 2.579526 10.723927 11.117586
O 2.778056 7.184652 4.340105
O 4.874218 9.059915 4.526908
O 0.188551 6.134534 5.068874
O 0.193532 11.972449 4.425102
O 2.292505 13.851489 4.516418
O 2.680846 10.821432 4.968249
O 2.564343 14.101545 11.477919
O 0.293473 12.410395 11.476392
O 5.150535 15.339539 11.284272
Si 3.463293 15.531495 10.844376
Si 3.535724 9.264588 10.839227
Si 4.416318 10.681113 5.161828
Si 4.263188 7.570694 5.202286
Si 1.828563 15.468334 5.146158
Si 1.737159 12.381889 5.184880
Si 0.840947 10.900311 10.857665
Si 0.951537 13.933292 10.852871
H 0.908903 7.707402 10.045874
H 2.075248 9.734202 6.378921
H 4.584125 14.350483 6.288003
H 3.259623 12.024705 9.789886
O 1.040849 7.888506 9.052047
O 1.708026 9.036891 7.043634
O 4.207753 13.665116 6.954744
O 3.548230 12.508654 8.942067
Al 2.635628 7.693220 8.039665
Al 0.100308 9.283685 8.036440
Al 2.637143 13.956195 8.002445
Al 0.008982 12.392035 7.996656
O 3.254372 24.748901 9.052741
O 3.714166 18.281634 9.124035
O 4.773886 20.133250 6.880177
O 4.210534 17.288764 6.868650
O 1.915910 24.577387 6.687675
O 1.698296 21.909140 6.938728
O 0.670130 20.129349 9.132085
O 1.076149 22.990377 9.131223
O 5.159333 18.729368 11.478261
O 2.878421 17.030453 11.468255
O 2.576164 19.953607 11.281916
O 2.775292 16.761386 4.425627
O 4.965512 18.607088 4.512363
O 0.113859 15.605132 4.883789
O 0.296066 21.468836 4.427389
O 2.474032 23.391914 4.605393
O 2.764026 20.245719 4.966713
O 2.573475 23.509908 11.555959
O 0.384027 21.720460 11.476171
O 5.153116 24.660174 11.287262
Si 3.503257 24.893950 10.717824
Si 3.546618 18.555025 10.849320
Si 4.495168 20.200153 5.156933
Si 4.343050 17.146590 5.139597
Si 1.866660 21.868115 5.179685
Si 0.887939 20.195713 10.862004
Si 0.990425 23.273383 10.865623
H 0.820165 16.847777 9.871212
H 2.088255 19.059451 6.291108
H 4.858846 23.854356 6.625009
H 3.358734 21.384261 9.820756
O 1.056742 17.203324 8.948636
O 1.713822 18.367383 6.959224
O 4.301690 23.065063 6.965150
O 3.630740 21.826077 8.946126
Al 2.667160 17.069600 7.975759
Al 0.130976 18.639145 7.986486
Al 2.674487 23.299205 8.006144
Al 0.097208 21.715130 7.998502
O 3.336032 6.292380 9.393936
O 1.627476 6.122154 7.207221
O 3.061886 26.517063 11.296203
H 3.109773 6.663801 10.403963
H 1.172808 6.069823 6.198941
H 2.126533 25.561233 6.891297
H 3.151097 5.285990 9.273944
H 0.807256 6.036192 7.833541
H 2.233162 24.167849 5.566727
H 3.358165 26.686098 12.270118
H 2.504148 7.592183 12.387288
H 2.202993 8.017721 4.114143
H 0.532024 5.816267 4.148835
O 2.765721 28.816394 9.448456
H 1.800468 29.077709 9.450021
H 2.881787 27.966519 9.962500
O 2.100657 31.971446 9.174314
H 1.348161 32.614745 9.315427
H 1.779561 31.040074 9.345906
O 4.187902 0.551231 7.611097
H 4.246641 -0.243406 7.006860
H 3.418072 0.436381 8.238928
O 4.793172 25.152142 4.337186
H 5.492140 24.892038 3.671011
H 4.131074 24.408880 4.433035
O 2.495993 27.508536 6.670788
H 1.682106 27.749058 6.141888
H 2.682567 28.227165 7.340686
O 3.180149 3.635423 9.214445
H 4.084256 3.215382 9.135978
H 2.475931 2.936777 9.088067
O 0.225541 29.769634 8.891397
H -0.664016 29.599243 9.315254
H 0.091342 30.137228 7.971144
O 0.723790 2.515676 8.343066
H 0.297391 1.681042 7.994396
H 1.087388 3.048492 7.578931
O 4.949926 27.412436 5.692612
H 5.161195 26.679803 5.045607
H 4.097755 27.199525 6.170601
O 4.762316 30.056353 6.267233
H 4.355626 30.409063 5.424500
H 4.879373 29.066097 6.191804
