123
wet_rib_y_o00_si_wNa1 t=6ps nw=10 na=1
O 3.152223 15.511111 9.116784
O 3.633264 9.044967 9.108762
O 4.589946 10.896168 6.876565
O 4.187131 7.985223 6.875652
O 2.009977 15.443464 6.867137
O 1.613849 12.604711 6.882433
O 0.565412 10.893704 9.106254
O 1.048816 13.741214 9.111887
O 5.048534 9.486893 11.478988
O 2.680527 7.792595 11.547243
O 2.504284 10.713435 11.110633
O 2.956124 7.614448 4.162811
O 4.975842 9.299841 4.604466
O 0.489593 6.481411 4.985348
O 0.183973 12.153685 4.430235
O 2.378114 13.930509 4.519374
O 2.698429 10.991878 4.798575
O 2.476365 14.118663 11.558227
O 0.286379 12.404941 11.475310
O 5.072946 15.335659 11.193723
Si 3.378104 15.484585 10.848662
Si 3.439340 9.207737 10.847278
Si 4.396615 10.820717 5.130541
Si 4.400715 7.724582 5.102004
Si 1.786072 15.459811 5.130332
Si 1.745768 12.439528 5.139040
Si 0.794325 10.875215 10.834717
Si 0.890697 13.896857 10.846052
H 0.918823 7.678895 9.910363
H 1.898982 9.719711 6.104457
H 4.525207 14.321322 6.178322
H 3.246843 12.029310 9.732259
O 1.046299 7.980655 8.946133
O 1.627420 9.219953 6.956294
O 4.207292 13.751667 6.961939
O 3.619869 12.671038 9.031040
Al 2.603978 7.920000 7.892219
Al 0.030871 9.370598 7.968809
Al 2.626035 13.956222 7.993284
Al 0.015162 12.428869 7.973511
O 3.160797 24.750113 9.115653
O 3.633713 18.286351 9.101088
O 4.586357 20.057155 6.867219
O 4.190849 17.208044 6.870460
O 2.006455 24.573780 6.687732
O 1.535133 21.823744 6.864324
O 0.563703 20.125615 9.106790
O 1.036794 22.982511 9.054761
O 5.062932 18.802556 11.562280
O 2.869102 17.028657 11.475256
O 2.553282 19.961077 11.105343
O 2.687100 16.844853 4.509397
O 4.873116 18.562582 4.510564
O 0.098763 15.614632 4.713429
O 0.092454 21.460843 4.430598
O 2.293650 23.320272 4.531423
O 2.610285 20.231807 4.875549
O 2.564985 23.422680 11.471334
O 0.385378 21.659612 11.471606
O 5.160726 24.572220 11.202715
Si 3.498423 24.803107 10.875583
Si 3.508247 18.495080 10.825238
Si 4.338099 20.104813 5.122807
Si 4.299079 17.067207 5.128532
Si 1.697166 21.796107 5.088931
Si 0.845655 20.106816 10.825006
Si 0.968437 23.134419 10.785411
H 0.587796 16.547198 9.621879
H 1.973253 19.007408 6.238413
H 4.341196 23.316712 5.987748
H 3.189037 21.253674 9.654357
O 0.973457 17.205301 8.949024
O 1.629085 18.364738 6.960876
O 4.195872 22.991791 6.943350
O 3.549034 21.897786 8.948785
Mg 2.580439 17.013490 7.960978
Al 0.033812 18.549759 7.960509
Al 2.558760 23.163847 7.878723
Al -0.023342 21.611008 7.941788
O 3.059651 6.033188 9.304002
O 2.015504 6.199359 7.043874
O 3.052884 26.446174 11.218616
H 2.984563 26.775544 12.189600
H 2.814457 6.936879 10.952253
H 2.054706 7.085488 4.355743
H 1.011305 6.319016 5.950512
H 3.172753 25.626087 8.576361
H 2.175820 24.060769 5.420190
H 3.985490 5.575085 9.226432
H 2.762833 5.750485 6.485763
H 1.075617 24.987832 6.798152
H 2.444781 5.702434 8.449870
Na 1.155120 4.412180 10.671126
O 3.924234 26.697752 7.413569
H 3.484271 26.042690 6.799299
H 4.756428 27.049552 6.984978
O 3.064043 28.502224 9.526257
H 3.003950 27.786630 10.222184
H 3.170854 28.082476 8.624922
O 4.073607 0.160772 9.766295
H 3.112529 -0.025609 9.562354
H 4.618262 -0.657298 9.581592
O 0.591993 30.038230 9.766396
H -0.078082 29.296187 9.785701
H 1.513593 29.653802 9.712836
O 3.069448 3.670860 11.928469
H 2.831091 4.173403 12.759515
H 3.859885 3.085280 12.108207
O 0.294684 4.946381 8.547890
H -0.211422 4.187761 8.137578
H 0.940556 5.316124 7.879951
O 0.458006 6.119688 12.117643
H 1.131137 6.830427 12.321959
H -0.389249 6.310653 12.613317
O 4.160968 2.790556 7.747619
H 3.356443 2.846865 7.156375
H 4.299855 1.841969 8.032039
O 0.467015 2.329217 10.934744
H -0.317202 1.845136 10.546578
H 1.109199 1.667348 11.321434
O 3.363746 4.700190 5.248777
H 4.335944 4.864419 5.081865
H 2.914402 4.456984 4.389159
